
Gurobi 9.5.0 (win64) logging started Mon Jun  6 20:03:03 2022

Set parameter LogFile to value "../results/logs/log_soc-dolphins_3_1_2022_06_06_20_03.log"
Set parameter LazyConstraints to value 1
Gurobi Optimizer version 9.5.0 build v9.5.0rc5 (win64)
Thread count: 6 physical cores, 12 logical processors, using up to 12 threads
Optimize a model with 5324 rows, 186 columns and 16540 nonzeros
Model fingerprint: 0x1795a74d
Variable types: 0 continuous, 186 integer (186 binary)
Coefficient statistics:
  Matrix range     [1e+00, 3e+00]
  Objective range  [1e+00, 1e+00]
  Bounds range     [1e+00, 1e+00]
  RHS range        [1e+00, 1e+00]
Found heuristic solution: objective -0.0000000
Presolve removed 5135 rows and 15 columns
Presolve time: 0.05s
Presolved: 189 rows, 171 columns, 4177 nonzeros
Variable types: 0 continuous, 171 integer (171 binary)

Root relaxation: objective 3.400000e+01, 58 iterations, 0.00 seconds (0.00 work units)

    Nodes    |    Current Node    |     Objective Bounds      |     Work
 Expl Unexpl |  Obj  Depth IntInf | Incumbent    BestBd   Gap | It/Node Time

     0     0   34.00000    0    2   -0.00000   34.00000      -     -    0s
H    0     0                       5.0000000   34.00000   580%     -    0s
     0     0   31.13333    0   14    5.00000   31.13333   523%     -    0s
     0     0   29.75000    0    4    5.00000   29.75000   495%     -    0s
H    0     0                      20.0000000   29.75000  48.8%     -    0s
H    0     0                      21.0000000   29.75000  41.7%     -    0s
     0     0   23.52492    0   48   21.00000   23.52492  12.0%     -    0s
H    0     0                      22.0000000   23.52492  6.93%     -    0s
     0     0 infeasible    0        22.00000   22.00000  0.00%     -    0s

Cutting planes:
  Gomory: 1
  Cover: 2
  Clique: 2
  MIR: 2
  GUB cover: 1
  RLT: 1
  Lazy constraints: 444

Explored 1 nodes (200 simplex iterations) in 0.16 seconds (0.08 work units)
Thread count was 12 (of 12 available processors)

Solution count 5: 22 21 20 ... -0

Optimal solution found (tolerance 0.00e+00)
Best objective 2.200000000000e+01, best bound 2.200000000000e+01, gap 0.0000%

User-callback calls 288, time in user-callback 0.05 sec

Gurobi 9.5.0 (win64) logging started Mon Jun  6 20:03:06 2022

Set parameter LogFile to value "../results/logs/log_soc-dolphins_3_1_2022_06_06_20_03.log"
Set parameter LazyConstraints to value 1
Gurobi Optimizer version 9.5.0 build v9.5.0rc5 (win64)
Thread count: 6 physical cores, 12 logical processors, using up to 12 threads
Optimize a model with 5324 rows, 186 columns and 16540 nonzeros
Model fingerprint: 0x57cc8f7c
Variable types: 0 continuous, 186 integer (186 binary)
Coefficient statistics:
  Matrix range     [1e+00, 3e+00]
  Objective range  [1e+00, 1e+00]
  Bounds range     [1e+00, 1e+00]
  RHS range        [1e+00, 1e+00]
Found heuristic solution: objective -0.0000000
Presolve removed 5138 rows and 15 columns
Presolve time: 0.04s
Presolved: 186 rows, 171 columns, 4023 nonzeros
Variable types: 0 continuous, 171 integer (171 binary)

Root relaxation: objective 3.400000e+01, 46 iterations, 0.00 seconds (0.00 work units)

    Nodes    |    Current Node    |     Objective Bounds      |     Work
 Expl Unexpl |  Obj  Depth IntInf | Incumbent    BestBd   Gap | It/Node Time

     0     0   34.00000    0    2   -0.00000   34.00000      -     -    0s
H    0     0                       5.0000000   34.00000   580%     -    0s
     0     0   31.13333    0   14    5.00000   31.13333   523%     -    0s
     0     0   29.00000    0    4    5.00000   29.00000   480%     -    0s
H    0     0                      28.0000000   29.00000  3.57%     -    0s
     0     0     cutoff    0        28.00000   28.00000  0.00%     -    0s

Cutting planes:
  Gomory: 2
  Cover: 3
  Clique: 6
  MIR: 2
  StrongCG: 1
  GUB cover: 1
  Zero half: 1
  RLT: 1
  Lazy constraints: 227

Explored 1 nodes (86 simplex iterations) in 0.10 seconds (0.06 work units)
Thread count was 12 (of 12 available processors)

Solution count 3: 28 5 -0 

Optimal solution found (tolerance 0.00e+00)
Best objective 2.800000000000e+01, best bound 2.800000000000e+01, gap 0.0000%

User-callback calls 268, time in user-callback 0.02 sec
